NAME : cgl_47.5046.tour
COMMENT : Length = 5046
COMMENT : Found by LKH-3 [Keld Helsgaun] Fri Nov  8 17:38:19 2024
TYPE : TOUR
DIMENSION : 48
TOUR_SECTION
21
25
18
20
14
12
19
17
24
16
23
8
1
4
2
5
6
7
3
9
10
33
34
35
40
39
36
38
37
41
42
43
44
45
46
47
48
31
32
29
30
27
28
26
22
11
13
15
-1
EOF
